C O H                                   
   1.00000000000000     
    12.3300000000000001    0.0000000000000000    0.0000000000000000
     0.0000000000000000   12.8137000000000008    0.0000000000000000
     0.0000000000000000    0.0000000000000000   32.7959999999999994
   C    O    H 
   240    99   199
Selective dynamics
Direct
  0.9111784256762120  0.6333605887624750  0.1046328210766156   T   T   T
  0.0502066070232103  0.5892058686351895  0.2041407488718150   T   T   F
  0.0104550200083837  0.6890029188958192  0.1052758728706198   T   T   T
  0.0054623294409262  0.7988362776723418  0.1049076983801329   T   T   T
  0.1471402304647897  0.7584814537078937  0.2041407488718150   T   T   F
  0.0484771730165367  0.7021360031052156  0.2041407488718150   T   T   F
  0.1459959757682180  0.8671468385767891  0.2041407488718150   T   T   F
  0.9092645224403704  0.8587293846864587  0.1070561134047923   T   T   T
  0.9077706479793862  0.9689647749560886  0.1074240926798152   T   T   T
  0.0454279161661078  0.9221635890234435  0.2041407488718150   T   T   F
  0.0087749027370017  0.0245013329591047  0.1011862053315319   T   T   T
  0.0103889647968631  0.1315137982673295  0.1005707052048580   T   T   T
  0.1472977714009027  0.0890180570654953  0.2041407488718150   T   T   F
  0.0496879563375179  0.0346320813250081  0.2041407488718150   T   T   F
  0.1467316635889579  0.1988743820996874  0.2041407488718150   T   T   F
  0.9112423271138919  0.1862967703007576  0.1007686856359479   T   T   T
  0.9108412602912861  0.2971488612513541  0.1013431582240877   T   T   T
  0.0474782657154470  0.2541594836749971  0.2041407488718150   T   T   F
  0.0121001940309892  0.3521111199116475  0.0975915034384677   T   T   T
  0.0088414182184838  0.4642331153401011  0.1006854823507983   T   T   T
  0.1474604380138259  0.4209481366448555  0.2041407488718150   T   T   F
  0.0453450897402701  0.3670552406417562  0.2041407488718150   T   T   F
  0.1497922080074505  0.5320803525951342  0.2041407488718150   T   T   F
  0.9116763624248362  0.5219511907381956  0.1033331625095764   T   T   T
  0.1086802849129400  0.6305240386928319  0.1075883284508176   T   T   T
  0.2472436621491793  0.5914301716026492  0.2041407488718150   T   T   F
  0.2080208600849481  0.6915195052062640  0.1043490711132185   T   T   T
  0.2053417310042186  0.7984742855361789  0.1035349462369073   T   T   T
  0.3443171682125514  0.7562074185302989  0.2041407488718150   T   T   F
  0.2447227188435350  0.7018879618829947  0.2041407488718150   T   T   F
  0.3485085452734836  0.8676624841454402  0.2041407488718150   T   T   F
  0.1035934961524078  0.8557444713735430  0.1034237496910991   T   T   T
  0.1066992037263731  0.9638950459418963  0.1007972033746244   T   T   T
  0.2474876272782693  0.9265622539829548  0.2041407488718150   T   T   F
  0.2075816294148107  0.0192711319308063  0.0987986540955466   T   T   T
  0.2097214929916752  0.1287268892423130  0.1005710677443083   T   T   T
  0.3524429729011171  0.0917402017430263  0.2041407488718150   T   T   F
  0.2495597045414438  0.0354227633435646  0.2041407488718150   T   T   F
  0.3492484165855778  0.2046385718385302  0.2041407488718150   T   T   F
  0.1102297961899075  0.1857709989648535  0.0995784419130062   T   T   T
  0.1083958883175922  0.2938769349366049  0.0991820520397759   T   T   T
  0.2436256162675674  0.2550627083655716  0.2041407488718150   T   T   F
  0.2112793530501355  0.3525171430031744  0.0978511139589228   T   T   T
  0.2076101574838950  0.4656127330365962  0.1005999599535797   T   T   T
  0.3463108078197712  0.4249555160272600  0.2041407488718150   T   T   F
  0.2453061068890507  0.3677703170717210  0.2041407488718150   T   T   F
  0.3459126828864464  0.5342686576765912  0.2041407488718150   T   T   F
  0.1082728263169610  0.5217126014520694  0.1021459456183445   T   T   T
  0.3111872796124838  0.6353309718916292  0.1037085078852865   T   T   T
  0.4464061351600925  0.5898002497012348  0.2041407488718150   T   T   F
  0.4111938541840212  0.6889697426982470  0.1040521460281311   T   T   T
  0.4100758866788420  0.8000011495461006  0.1036892005430067   T   T   T
  0.5458724996767236  0.7530928213618248  0.2041407488718150   T   T   F
  0.4437695242224438  0.7020305278218449  0.2041407488718150   T   T   F
  0.5462743420052473  0.8656848800254957  0.2041407488718150   T   T   F
  0.3094808416406617  0.8565252894898400  0.1040686295615777   T   T   T
  0.3088888307792304  0.9667213399757134  0.1003044061677996   T   T   T
  0.4451137044920478  0.9208071431587175  0.2041407488718150   T   T   F
  0.4097141718589243  0.0197485892861522  0.1023011213490845   T   T   T
  0.4129269802352831  0.1346093956803267  0.1023673074149477   T   T   T
  0.5482082775123248  0.0856311656061995  0.2041407488718150   T   T   F
  0.4492634456247075  0.0318268559564844  0.2041407488718150   T   T   F
  0.5456114689527511  0.1995726866857641  0.2041407488718150   T   T   F
  0.3098436272666351  0.1866665473088664  0.0996359065724077   T   T   T
  0.3101361811669705  0.2974644437720899  0.0996528101917498   T   T   T
  0.4480328082901848  0.2585486965745595  0.2041407488718150   T   T   F
  0.4118400700856856  0.3544342412574310  0.1016100696484118   T   T   T
  0.4097369157556017  0.4645323376317262  0.1026770104675758   T   T   T
  0.5467387796049882  0.4243508515459809  0.2041407488718150   T   T   F
  0.4481681879814161  0.3703303254558465  0.2041407488718150   T   T   F
  0.5484665981212699  0.5370714147298380  0.2041407488718150   T   T   F
  0.3103402524471474  0.5216193656068838  0.1027667393703252   T   T   T
  0.5115758643668512  0.6315507943318838  0.1053314997418564   T   T   T
  0.6485657483052909  0.5885632351311048  0.2041407488718150   T   T   F
  0.6134815636274081  0.6899531023776893  0.1051469991345076   T   T   T
  0.6127391778393173  0.7989396900449793  0.1022166691443102   T   T   T
  0.7452864731321779  0.7558121857221389  0.2041407488718150   T   T   F
  0.6494572045318060  0.6993335544875264  0.2041407488718150   T   T   F
  0.7473959123792290  0.8681108862966174  0.2041407488718150   T   T   F
  0.5119583523539581  0.8526340718844214  0.1055086809164078   T   T   T
  0.5107350921131696  0.9627138279626517  0.1051535238356079   T   T   T
  0.6478343679426530  0.9201417530587211  0.2041407488718150   T   T   F
  0.6071346630980695  0.0257117073000750  0.1061438680214501   T   T   T
  0.6102134234691355  0.1343888977828553  0.1042102189243874   T   T   T
  0.7515417037480479  0.0882692614524305  0.2041407488718150   T   T   F
  0.6506777587935395  0.0295574785021073  0.2041407488718150   T   T   F
  0.7487936924030654  0.1993594404087533  0.2041407488718150   T   T   F
  0.5095552405616723  0.1881243002365381  0.1023887243486236   T   T   T
  0.5119511943982500  0.2975947398995569  0.1024961561951718   T   T   T
  0.6447991761368482  0.2555980094251820  0.2041407488718150   T   T   F
  0.6145323946913865  0.3531958593679886  0.1053122471586761   T   T   T
  0.6113142271266547  0.4649706091950377  0.1031793977414386   T   T   T
  0.7454171410103398  0.4213046221324429  0.2041407488718150   T   T   F
  0.6446345567462508  0.3661498059157335  0.2041407488718150   T   T   F
  0.7516165018438090  0.5311799255857891  0.2041407488718150   T   T   F
  0.5119490757474725  0.5204192670880092  0.1040830740225700   T   T   T
  0.7123752636698689  0.6343586049461456  0.1043292621099422   T   T   T
  0.8496460531117257  0.5891553622010128  0.2041407488718150   T   T   F
  0.8117737089751941  0.6922976639069378  0.1043268868105984   T   T   T
  0.8093249350576804  0.8019272962335324  0.1093046825526247   T   T   T
  0.9459220685657830  0.7573620479879539  0.2041407488718150   T   T   F
  0.8491502563756498  0.6997696984527333  0.2041407488718150   T   T   F
  0.9474589827192648  0.8677679716984016  0.2041407488718150   T   T   F
  0.7134376858254309  0.8581968892230261  0.1086389136379822   T   T   T
  0.7077379971829223  0.9698298272920801  0.1117504805996213   T   T   T
  0.8463373097266841  0.9249786582081939  0.2041407488718150   T   T   F
  0.8105719080788495  0.0265148826388319  0.1088114924083032   T   T   T
  0.8092632374797792  0.1334990852698280  0.1056588194766055   T   T   T
  0.9505895599236649  0.0906507987813942  0.2041407488718150   T   T   F
  0.8508051011235022  0.0347610146852005  0.2041407488718150   T   T   F
  0.9483091744722904  0.2017672508570032  0.2041407488718150   T   T   F
  0.7110553025085261  0.1904065538509262  0.1036174117217525   T   T   T
  0.7147124637637914  0.3014163742632031  0.1025007563348664   T   T   T
  0.8489216456758456  0.2566516724294694  0.2041407488718150   T   T   F
  0.8162221817282803  0.3565212890515349  0.1036187361187937   T   T   T
  0.8159798054224041  0.4690241857981662  0.1006882495554782   T   T   T
  0.9503249058296930  0.4231343726708836  0.2041407488718150   T   T   F
  0.8482318489427640  0.3697339352184925  0.2041407488718150   T   T   F
  0.9496440396255570  0.5356881431278444  0.2041407488718150   T   T   F
  0.7135022563609884  0.5229480749765946  0.1036795035494508   T   T   T
  0.9874494145392411  0.6220647066488513  0.3062111233077189   T   T   F
  0.0012746450088115  0.5979864247599782  0.4029620637402582   T   T   T
  0.0887746575979038  0.6774024248627523  0.3062111233077189   T   T   F
  0.0862930324954705  0.7877486961820859  0.3062111233077189   T   T   F
  0.1026461233140958  0.7671391291784025  0.4080256291373973   T   T   T
  0.0010070910891001  0.7116286243623223  0.4064084189475648   T   T   T
  0.1051594286066240  0.8768331074352358  0.4138222746167155   T   T   T
  0.9843314796141071  0.8428473570851673  0.3062111233077189   T   T   F
  0.9883110401472901  0.9530026055671672  0.3062111233077189   T   T   F
  0.0028050436723481  0.9319443328909395  0.4110340129151835   T   T   T
  0.0890511753553008  0.0074339683687900  0.3062111233077189   T   T   F
  0.0865671255532933  0.1210337132975052  0.3062111233077189   T   T   F
  0.1015552541128067  0.0947101990430468  0.4062649194250710   T   T   T
  0.9999787589504405  0.0415453054761433  0.4104619530005326   T   T   T
  0.1019617359747940  0.2116245707883637  0.4048034928388328   T   T   T
  0.9853666825134367  0.1766234129088858  0.3062111233077189   T   T   F
  0.9876008895894220  0.2893182782581776  0.3062111233077189   T   T   F
  0.0000568088055924  0.2619166144983268  0.4040063132458770   T   T   T
  0.0864849307359562  0.3458956111709138  0.3062111233077189   T   T   F
  0.0840317833392486  0.4560497474110285  0.3062111233077189   T   T   F
  0.1018699261633431  0.4306931845007803  0.4017963352974834   T   T   T
  0.0013206051650440  0.3737774467144351  0.4046031215741110   T   T   T
  0.1010390007876160  0.5395003970738125  0.4026848481686926   T   T   T
  0.9859308003983436  0.5137960880108593  0.3062111233077189   T   T   F
  0.1850434266554702  0.6253732654327322  0.3062111233077189   T   T   F
  0.2027733998191039  0.5932841196271939  0.4048783206199584   T   T   T
  0.2902234696498280  0.6803196439278668  0.3062111233077189   T   T   F
  0.2913070864926412  0.7893490266860751  0.3062111233077189   T   T   F
  0.3010720905506499  0.7628598428668250  0.4105283971163636   T   T   T
  0.2027605454733997  0.7096586389261191  0.4069375496347687   T   T   T
  0.3046583229860687  0.8761316323468007  0.4110639329709473   T   T   T
  0.1878561956791631  0.8425188917480037  0.3062111233077189   T   T   F
  0.1898406019966601  0.9538672295140110  0.3062111233077189   T   T   F
  0.2065559925516878  0.9337807271390490  0.4138759887619655   T   T   T
  0.2900664096561242  0.0125419106628634  0.3062111233077189   T   T   F
  0.2894147786180966  0.1244204280171939  0.3062111233077189   T   T   F
  0.2993271916680667  0.0964102334480852  0.4100203679490492   T   T   T
  0.2030454625629756  0.0411586257023108  0.4095334359751640   T   T   T
  0.3005067611018766  0.2060954989966482  0.4092561699223298   T   T   T
  0.1872307729938254  0.1780684361269573  0.3062111233077189   T   T   F
  0.1877364117757444  0.2886593620949532  0.3062111233077189   T   T   F
  0.2022629051765436  0.2680203877923317  0.4066909990881458   T   T   T
  0.2894865241785683  0.3454447252657529  0.3062111233077189   T   T   F
  0.2883479137249293  0.4572580648316563  0.3062111233077189   T   T   F
  0.3066280172139194  0.4273673594929968  0.4083263637856524   T   T   T
  0.2015365844895728  0.3766257156943041  0.4065441960366726   T   T   T
  0.3038174740594764  0.5401666815694232  0.4076161951552803   T   T   T
  0.1878753160155166  0.5096401179581448  0.3062111233077189   T   T   F
  0.3892226786571487  0.6241192343102814  0.3062111233077189   T   T   F
  0.4039445058600022  0.5989150510944685  0.4062251222815755   T   T   T
  0.4907309050111309  0.6788384271349136  0.3062111233077189   T   T   F
  0.4919256389647151  0.7919184239295350  0.3062111233077189   T   T   F
  0.5064805061546026  0.7683385536003686  0.4061262299733112   T   T   T
  0.4052777651842319  0.7114941450370567  0.4059108536784929   T   T   T
  0.5073640597574294  0.8740478771863475  0.4079402808179278   T   T   T
  0.3906411643150378  0.8476729166162755  0.3062111233077189   T   T   F
  0.3894061308028590  0.9615926199230060  0.3062111233077189   T   T   F
  0.4037323067574317  0.9335365609001166  0.4101859564352953   T   T   T
  0.4885117564412849  0.0164665643257246  0.3062111233077189   T   T   F
  0.4924028157876962  0.1253967449049954  0.3062111233077189   T   T   F
  0.5019091919008384  0.0946403973536998  0.4126934037214132   T   T   T
  0.4017839785124333  0.0433261358690274  0.4119202031115710   T   T   T
  0.5010080898020149  0.2052062010308600  0.4095722186933802   T   T   T
  0.3895377676374430  0.1823957558676298  0.3062111233077189   T   T   F
  0.3906706697256745  0.2897347858197296  0.3062111233077189   T   T   F
  0.4022045820732900  0.2609507174857968  0.4067105887099223   T   T   T
  0.4891656202071083  0.3440782773815013  0.3062111233077189   T   T   F
  0.4886666797031703  0.4580972772859184  0.3062111233077189   T   T   F
  0.5009737761882619  0.4312883290180488  0.4056387546910646   T   T   T
  0.4038182011744907  0.3713837367020595  0.4061533332510897   T   T   T
  0.5014381921196772  0.5401718664181433  0.4060999600622481   T   T   T
  0.3850903889188959  0.5132445004210102  0.3062111233077189   T   T   F
  0.5896446862760019  0.6231236905297984  0.3062111233077189   T   T   F
  0.5994868013484993  0.5973036038179327  0.4057444586145369   T   T   T
  0.6916825937939221  0.6784974076764871  0.3062111233077189   T   T   F
  0.6919116473029905  0.7898969383454342  0.3062111233077189   T   T   F
  0.7019774359050801  0.7614299773444092  0.4049830194284059   T   T   T
  0.6016142669002187  0.7079074535651203  0.4051637175961996   T   T   T
  0.7027884682541825  0.8745056102192548  0.4086046271055386   T   T   T
  0.5929664312972716  0.8475298643399003  0.3062111233077189   T   T   F
  0.5901757216975767  0.9575082862547658  0.3062111233077189   T   T   F
  0.6054583833677555  0.9311497606201360  0.4090616744830738   T   T   T
  0.6909990255332921  0.0126384465141226  0.3062111233077189   T   T   F
  0.6913511828585359  0.1243641185062179  0.3062111233077189   T   T   F
  0.7006348222094463  0.0986993717987835  0.4075013680779230   T   T   T
  0.6010177423701016  0.0424571907216709  0.4082438256674709   T   T   T
  0.6992248678768963  0.2087471052384180  0.4036866776802833   T   T   T
  0.5950182914701421  0.1798450284942983  0.3062111233077189   T   T   F
  0.5900714702367212  0.2907890305993953  0.3062111233077189   T   T   F
  0.6006143134715993  0.2632870485204238  0.4041428697805114   T   T   T
  0.6907616732738935  0.3449191427659481  0.3062111233077189   T   T   F
  0.6872742280106053  0.4525344927235642  0.3062111233077189   T   T   F
  0.7075254268796085  0.4314746306326939  0.4021108703783199   T   T   T
  0.6017727748851331  0.3755087839265491  0.4063796776469758   T   T   T
  0.7029960214687778  0.5415235674731567  0.4055495556257209   T   T   T
  0.5900865679072631  0.5100032210108513  0.3062111233077189   T   T   F
  0.7892335534457118  0.6214981319690279  0.3062111233077189   T   T   F
  0.8032187334821550  0.5960579149445019  0.4066574959819589   T   T   T
  0.8891169521452388  0.6781747284390955  0.3062111233077189   T   T   F
  0.8878133231340616  0.7871285766965661  0.3062111233077189   T   T   F
  0.8998125356466344  0.7672885960280320  0.4079230494192068   T   T   T
  0.8025258846158465  0.7104477424341845  0.4057679467069162   T   T   T
  0.8997371935119823  0.8765960761276523  0.4099464387159236   T   T   T
  0.7893368528451133  0.8445473348037922  0.3062111233077189   T   T   F
  0.7889129138709843  0.9552669544847217  0.3062111233077189   T   T   F
  0.8023917497841339  0.9308736897245486  0.4106404753024490   T   T   T
  0.8857612351264238  0.0110681611057405  0.3062111233077189   T   T   F
  0.8867282806296330  0.1205062277658265  0.3062111233077189   T   T   F
  0.8988015060941054  0.0968623211741757  0.4059237326508600   T   T   T
  0.7962178043764263  0.0419804839324803  0.4055069860850576   T   T   T
  0.8992745906583371  0.2070055365737056  0.4029988980937464   T   T   T
  0.7876665173162755  0.1778139704542207  0.3062111233077189   T   T   F
  0.7901067635580312  0.2914631705985126  0.3062111233077189   T   T   F
  0.8000855629165263  0.2627498450048910  0.4023454908406338   T   T   T
  0.8897358381597295  0.3442591416168108  0.3062111233077189   T   T   F
  0.8856244399099612  0.4557531006159170  0.3062111233077189   T   T   F
  0.9038549726861468  0.4282795370628017  0.4005266358031477   T   T   T
  0.8001099001765487  0.3726793099620575  0.3976193577253138   T   T   T
  0.9032105427098134  0.5402929600086915  0.4032053938479659   T   T   T
  0.7841834072954493  0.5114294326923710  0.3062111233077189   T   T   F
  0.3889383190716629  0.0508860453559723  0.5650896492257622   T   T   T
  0.4918757033040892  0.8838337941021723  0.5313365977390047   T   T   T
  0.5758549352608227  0.9824285847796871  0.6015326546378829   T   T   T
  0.3579926566183380  0.3435086394518698  0.9491101734641030   T   T   T
  0.2637520997200303  0.6568950778577641  0.8724414621613996   T   T   T
  0.1820408709305164  0.2294427646744014  0.9528365069790703   T   T   T
  0.2420625489202003  0.9160142559524483  0.9761936253820828   T   T   T
  0.1388901210750284  0.3563906772698180  0.6250040701315276   T   T   T
  0.5872313834941564  0.4067447894645653  0.8522338081111046   T   T   T
  0.6637532723521000  0.8312554326872921  0.6921709629031219   T   T   T
  0.1623705623034934  0.7245514977019082  0.6982113437492030   T   T   T
  0.9576126366678983  0.9234808266163956  0.5085245536186861   T   T   T
  0.9248810979876696  0.7726924139836597  0.7550491429866667   T   T   T
  0.4269503102293205  0.8797462952860944  0.8646970089187549   T   T   T
  0.7600932842661828  0.3374350222351392  0.5010492896721258   T   T   T
  0.2692935013034295  0.2141864166393660  0.7418339464298034   T   T   T
  0.6996643396356523  0.6588464848561988  0.9824569494670669   T   T   T
  0.5077130195900574  0.5051656203699545  0.7479534484661482   T   T   T
  0.4580287490878862  0.5499008955997103  0.8202103273329606   T   T   T
  0.0657083016429929  0.7233075257326562  0.8531080242838515   T   T   T
  0.1011521716238218  0.5929962647678549  0.9927046949709821   T   T   T
  0.8714629895294761  0.9940732355502779  0.6331707595902014   T   T   T
  0.9005419968162266  0.2221770828740238  0.8624542721921764   T   T   T
  0.4982917697405043  0.4192661377714133  0.9962756277989069   T   T   T
  0.1924224628391878  0.9002268887158301  0.7423063917431071   T   T   T
  0.0745837733101154  0.2160467826561706  0.5762210860263327   T   T   T
  0.7615243565541265  0.9104016207437661  0.8715002870943361   T   T   T
  0.6483347980904383  0.2264304209391712  0.6053927278937129   T   T   T
  0.3418051280204842  0.7564438994748051  0.7793253328761025   T   T   T
  0.8867977622626905  0.1511126756071199  0.5882678788051704   T   T   T
  0.0179185375513947  0.4604216980244114  0.5039889024409717   T   T   T
  0.4023207238743639  0.0346907019294001  0.9922243836512070   T   T   T
  0.5157708320477711  0.5270897883511469  0.6007007274349514   T   T   T
  0.6473851008543652  0.0496756811551608  0.5193908676695956   T   T   T
  0.8248582744392051  0.7083353814949976  0.6824803195517403   T   T   T
  0.6233380406922118  0.1569120044704518  0.7746888331323531   T   T   T
  0.5969241536649398  0.2372207804183488  0.5351727615402997   T   T   T
  0.5978991863058126  0.9654136686993325  0.8118806787918381   T   T   T
  0.8470776404037238  0.4744184734559053  0.6810582919037222   T   T   T
  0.3682086031757751  0.4038249220365517  0.5246859343115134   T   T   T
  0.9537880486328303  0.0970696912263240  0.6946813289989809   T   T   T
  0.2537334746897926  0.7694686068279032  0.5748813882448446   T   T   T
  0.9718472564099757  0.9699752527663633  0.7550871782544814   T   T   T
  0.2817561275657957  0.0462071767989485  0.6818260866419316   T   T   T
  0.9228363310794837  0.7603053471014946  0.0028020494798636   T   T   T
  0.8533011839181757  0.3964905460739288  0.5730525867059290   T   T   T
  0.9793679517782825  0.7288646203067082  0.6243435277152728   T   T   T
  0.9530758843927416  0.4954209771260209  0.8800375293819191   T   T   T
  0.5673616410810539  0.5277853610920281  0.5231937924814984   T   T   T
  0.6439755638015647  0.0493798706719103  0.6801647350736640   T   T   T
  0.7436797823640456  0.6552991307405126  0.7928380092090007   T   T   T
  0.0521211680598412  0.9121676362061096  0.8893807282287806   T   T   T
  0.0300503798384024  0.9217060610525877  0.9675742432990807   T   T   T
  0.2300720870764695  0.7100577073603278  0.9533002817182828   T   T   T
  0.2651741233528325  0.4471673383001351  0.8731964278505163   T   T   T
  0.0945049750444827  0.6490469678846157  0.7747090233243318   T   T   T
  0.7035665202931929  0.9904292686499374  0.9412395267516586   T   T   T
  0.1372749757857454  0.2428150938531927  0.4990070791219284   T   T   T
  0.4776992553283457  0.2937244906987502  0.7296067298847903   T   T   T
  0.0609938296384969  0.4116665718103064  0.9455180596605103   T   T   T
  0.7775293330359558  0.5583516434142830  0.5006074863780936   T   T   T
  0.2681259117359615  0.1797028031141642  0.8250555568784298   T   T   T
  0.6851233215414202  0.8825022586173421  0.0187086411557012   T   T   T
  0.2223048589784182  0.5598466496583755  0.5413524346066091   T   T   T
  0.2067895193522218  0.0531501931093594  0.9078974315496409   T   T   T
  0.0055174307388208  0.5117627243242515  0.6236359260448834   T   T   T
  0.4343476328096265  0.2597807388055400  0.8829218708363281   T   T   T
  0.7158113767277066  0.7045150190116810  0.8736757802144264   T   T   T
  0.8100329273264052  0.1846543597526798  0.9456115886805835   T   T   T
  0.4880370858341946  0.8154441910528389  0.9841897506284905   T   T   T
  0.9252187945771888  0.0256695975849990  0.8340988586100082   T   T   T
  0.3602863864783271  0.7883905128566087  0.6409388794854377   T   T   T
  0.0902724173048172  0.4478405987707271  0.7615427011553421   T   T   T
  0.1126997663836547  0.3380223146366744  0.8279749354518852   T   T   T
  0.7036697075320729  0.3575732237756219  0.9647320588846470   T   T   T
  0.3639146719459292  0.3978448936504460  0.6123862578026419   T   T   T
  0.7631870285526721  0.2030329452881384  0.7110244726053365   T   T   T
  0.5010197441745234  0.6763691492178412  0.8781676538393430   T   T   T
  0.7369415894884215  0.5002710404276308  0.9065110895704400   T   T   T
  0.7520534079393879  0.8576118876029047  0.5091515125482625   T   T   T
  0.8656695507589597  0.4742024211925243  0.7632242166899261   T   T   T
  0.3561758333199333  0.2009932861322777  0.4980855786781750   T   T   T
  0.6812293688518212  0.4066609974555214  0.6355406707936545   T   T   T
  0.4608430588418167  0.2044643965544755  0.6475266233199414   T   T   T
  0.7549980534282726  0.3184329991839495  0.8050042378367829   T   T   T
  0.0647094993512177  0.9038688545345733  0.5809576411433013   T   T   T
  0.9337554481180904  0.1389178201247427  0.4969485405532618   T   T   T
  0.2177071199676419  0.9451473149912873  0.8298765905203054   T   T   T
  0.8755134610759845  0.4074849950184136  0.0004414252427447   T   T   T
  0.0947600513450878  0.2925964339546230  0.7043870780018956   T   T   T
  0.4706071857709432  0.0267672962046324  0.7298253462745329   T   T   T
  0.5641886654293660  0.7263672330288822  0.6238193409120807   T   T   T
  0.7643575431809719  0.6829968253590967  0.5694918571952126   T   T   T
  0.0109629611810759  0.1463724327001606  0.0052037483353294   T   T   T
  0.4289428154367738  0.6149807700310724  0.9715401199956223   T   T   T
  0.5498807116410427  0.7741982007163779  0.7575104607087148   T   T   T
  0.4098950652531221  0.6884581810236096  0.5041728067132267   T   T   T
  0.4727730656996062  0.0634793408204472  0.9165946250097876   T   T   T
  0.1974880875940108  0.0602147269705170  0.6009196357059086   T   T   T
  0.7453862289027156  0.2737481322725335  0.7021941488520583   T   T   T
  0.4423183527380072  0.0493258557318122  0.5858065147755559   T   T   T
  0.4091733722401306  0.9820669169204163  0.5508842387518702   T   T   T
  0.5595091733737613  0.8889411255031181  0.5155768866508035   T   T   T
  0.4655893476796669  0.8066766287532250  0.5300525927943206   T   T   T
  0.6025268165571689  0.9971631118259009  0.6302867860317606   T   T   T
  0.5823371694632303  0.9046653850824119  0.5963009078171736   T   T   T
  0.3893470599988739  0.3004777895618195  0.9241058671304295   T   T   T
  0.2913350789680400  0.3125870846027653  0.9611382826995744   T   T   T
  0.1890158373284268  0.6811945867223410  0.8659900965183004   T   T   T
  0.2670841580008494  0.6862484972742405  0.9022459653086817   T   T   T
  0.1871584930392860  0.1611038153532007  0.9371911061766603   T   T   T
  0.1382626883125104  0.2185014799186874  0.9771851965134783   T   T   T
  0.2583034093173360  0.8425612124299439  0.9703697377485473   T   T   T
  0.2996907626276109  0.9529165716817456  0.9890107290344856   T   T   T
  0.1052458022833331  0.2999116396913596  0.6068517751547345   T   T   T
  0.2158915190167952  0.3713750201005706  0.6204646433943758   T   T   T
  0.5347236296479029  0.4642554274403309  0.8459036659844835   T   T   T
  0.5502630797103844  0.3551910994595572  0.8695872907315818   T   T   T
  0.6101952801802897  0.8166841828971116  0.7129920240454681   T   T   T
  0.6786144598563364  0.9062142122709993  0.6920349775799592   T   T   T
  0.1444613030183085  0.6979279212116635  0.7273956904599965   T   T   T
  0.0842539391459365  0.7289914627848298  0.6879899906496125   T   T   T
  0.0055588296396887  0.8981525592337419  0.4876613697669562   T   T   T
  0.9472978626688137  0.9993725535303956  0.5063329257389401   T   T   T
  0.9805432534026696  0.7239571631796972  0.7668760397573975   T   T   T
  0.8847757529616019  0.7424289709151136  0.7325321072418937   T   T   T
  0.3530042962348063  0.8848105270266954  0.8562232168857591   T   T   T
  0.4738010961400396  0.8928436629188308  0.8399624403812070   T   T   T
  0.7445206888136499  0.3992856698259351  0.4844667146634505   T   T   T
  0.8165194432163326  0.6028628103135351  0.4795755625604934   T   T   T
  0.2122009756677609  0.2598880732610251  0.7312587647046559   T   T   T
  0.3428814539475712  0.2528497584270056  0.7391836423910164   T   T   T
  0.6779469132318229  0.5860909828448024  0.9879898584164386   T   T   T
  0.6249812360404852  0.6950050736163204  0.9844803021189518   T   T   T
  0.4641586156282918  0.5587306527928307  0.7321711385247154   T   T   T
  0.5001569189831749  0.5216095389161046  0.7779832015724413   T   T   T
  0.4792499022743750  0.6155450808629044  0.8373476333654757   T   T   T
  0.3808452173225912  0.5354169099601380  0.8235182240814199   T   T   T
  0.0542643288397206  0.7996960885076326  0.8621607265360650   T   T   T
  0.0156709124521543  0.6754383431726576  0.8673440229593269   T   T   T
  0.1468652667758856  0.5742966995874959  0.0163954088711787   T   T   T
  0.0962568002350133  0.5207382401409829  0.9788075965687963   T   T   T
  0.9134242515366757  0.9442244259603151  0.6170211041169411   T   T   T
  0.9159726167260218  0.0221689190643046  0.6545887340340284   T   T   T
  0.8529530823319335  0.2571502828060557  0.8432770113146523   T   T   T
  0.9671601964701823  0.2597686454839049  0.8579208636243092   T   T   T
  0.4447805804318282  0.3937616458343091  0.9751415464429574   T   T   T
  0.4762647173342400  0.3952299405119266  0.0224784344553590   T   T   T
  0.1959928912531828  0.8359908399839893  0.7263587312238495   T   T   T
  0.1097956226025115  0.9161870178209119  0.7427776041209165   T   T   T
  0.1246994181431651  0.1587190470709228  0.5856528505566241   T   T   T
  0.9967044885519242  0.1888831037675833  0.5783404609887195   T   T   T
  0.7415689873826605  0.9297388939457163  0.9000705566753573   T   T   T
  0.7455143110913186  0.8356779427918448  0.8690027591012545   T   T   T
  0.6709325553607511  0.2987286580730874  0.6181957241735355   T   T   T
  0.5811221161466470  0.1919257909888158  0.6178452757813547   T   T   T
  0.2810665404206212  0.8001194883386505  0.7716885107594880   T   T   T
  0.3152340472202382  0.7305813969333211  0.8047703935705431   T   T   T
  0.8247129936438403  0.1926600358026145  0.5992364906513602   T   T   T
  0.8736411834246981  0.0820248837529875  0.6043162173888078   T   T   T
  0.9424394713405869  0.4483106989849716  0.5088270281144840   T   T   T
  0.0498092348820698  0.3934248609829925  0.4958526469253242   T   T   T
  0.3852168327606703  0.1073498036446668  0.0003573320266910   T   T   T
  0.4160754630533354  0.0451791652514549  0.9619536420468574   T   T   T
  0.5299059152758457  0.5245092993972026  0.5704282828676830   T   T   T
  0.5351465467077025  0.5999400141988884  0.6072917777607296   T   T   T